14° run output:
{
    "Function": "kroB500.tsp",
    "Problem dimension": [
        87,
        54,
        172,
        61,
        499,
        131,
        345,
        300,
        482,
        204,
        370,
        439,
        33,
        348,
        461,
        257,
        49,
        403,
        104,
        382,
        7,
        487,
        231,
        347,
        424,
        24,
        106,
        351,
        8,
        21,
        136,
        463,
        289,
        228,
        401,
        420,
        30,
        425,
        274,
        267,
        5,
        63,
        11,
        179,
        376,
        80,
        78,
        174,
        402,
        325,
        178,
        441,
        125,
        404,
        79,
        408,
        293,
        0,
        340,
        255,
        66,
        385,
        266,
        190,
        279,
        276,
        71,
        389,
        159,
        260,
        469,
        349,
        237,
        430,
        152,
        43,
        422,
        217,
        303,
        447,
        388,
        163,
        26,
        332,
        119,
        62,
        254,
        47,
        184,
        459,
        281,
        449,
        220,
        368,
        455,
        113,
        249,
        330,
        262,
        339,
        98,
        75,
        417,
        207,
        445,
        209,
        117,
        359,
        158,
        490,
        73,
        328,
        484,
        381,
        112,
        322,
        213,
        369,
        460,
        196,
        162,
        294,
        6,
        448,
        100,
        364,
        176,
        462,
        110,
        85,
        444,
        206,
        111,
        446,
        221,
        410,
        433,
        65,
        69,
        313,
        353,
        22,
        306,
        466,
        292,
        83,
        195,
        216,
        305,
        167,
        297,
        450,
        454,
        259,
        189,
        442,
        166,
        97,
        324,
        224,
        4,
        148,
        473,
        37,
        168,
        177,
        203,
        222,
        367,
        3,
        44,
        16,
        329,
        1,
        194,
        161,
        258,
        494,
        406,
        86,
        395,
        392,
        265,
        32,
        304,
        139,
        127,
        201,
        495,
        416,
        342,
        271,
        486,
        409,
        295,
        350,
        275,
        290,
        94,
        283,
        358,
        316,
        56,
        309,
        414,
        496,
        116,
        491,
        310,
        337,
        434,
        419,
        92,
        363,
        135,
        268,
        312,
        130,
        235,
        407,
        387,
        9,
        145,
        287,
        319,
        197,
        28,
        286,
        23,
        396,
        397,
        242,
        183,
        233,
        470,
        57,
        248,
        343,
        19,
        72,
        251,
        155,
        432,
        428,
        291,
        25,
        415,
        335,
        352,
        160,
        108,
        208,
        485,
        247,
        412,
        14,
        182,
        34,
        405,
        366,
        50,
        477,
        365,
        153,
        418,
        68,
        20,
        475,
        141,
        435,
        453,
        218,
        308,
        468,
        479,
        175,
        10,
        438,
        338,
        12,
        124,
        101,
        464,
        223,
        88,
        355,
        82,
        301,
        186,
        311,
        134,
        478,
        323,
        219,
        67,
        476,
        320,
        215,
        133,
        429,
        126,
        36,
        244,
        169,
        187,
        193,
        277,
        285,
        154,
        280,
        107,
        456,
        326,
        253,
        399,
        115,
        64,
        138,
        374,
        334,
        375,
        91,
        411,
        96,
        346,
        185,
        333,
        471,
        109,
        261,
        391,
        229,
        39,
        180,
        321,
        114,
        269,
        211,
        245,
        59,
        299,
        146,
        377,
        361,
        48,
        128,
        84,
        483,
        288,
        27,
        52,
        227,
        284,
        480,
        225,
        362,
        431,
        74,
        282,
        18,
        371,
        129,
        40,
        164,
        238,
        263,
        493,
        472,
        318,
        103,
        307,
        386,
        42,
        230,
        243,
        60,
        2,
        393,
        205,
        210,
        398,
        90,
        192,
        232,
        437,
        41,
        481,
        31,
        327,
        156,
        132,
        105,
        99,
        273,
        150,
        394,
        379,
        390,
        256,
        427,
        336,
        413,
        452,
        341,
        331,
        436,
        440,
        102,
        443,
        170,
        457,
        13,
        234,
        81,
        144,
        383,
        51,
        212,
        147,
        76,
        302,
        360,
        400,
        489,
        241,
        70,
        423,
        298,
        157,
        165,
        354,
        53,
        270,
        140,
        372,
        181,
        373,
        46,
        465,
        173,
        45,
        252,
        314,
        474,
        378,
        123,
        142,
        498,
        421,
        89,
        344,
        467,
        214,
        15,
        202,
        264,
        451,
        188,
        239,
        121,
        278,
        38,
        137,
        272,
        191,
        380,
        17,
        488,
        458,
        250,
        122,
        151,
        29,
        384,
        93,
        426,
        118,
        317,
        492,
        199,
        315,
        497,
        198,
        226,
        95,
        357,
        58,
        200,
        171,
        296,
        240,
        149,
        55,
        246,
        120,
        77,
        236,
        356,
        35,
        143
    ],
    "Global Optimum": 0,
    "Algorithm": "Genetic algorithm",
    "Parameters": {
        "population": 30,
        "offspring": 30,
        "mutation probability": 0.002,
        "crossover probability": 0.9
    },
    "Fitness": 527500,
    "Solution": [
        87,
        54,
        172,
        61,
        499,
        131,
        345,
        300,
        482,
        204,
        370,
        439,
        33,
        348,
        461,
        257,
        49,
        403,
        104,
        382,
        7,
        487,
        231,
        347,
        424,
        24,
        106,
        351,
        8,
        21,
        136,
        463,
        289,
        228,
        401,
        420,
        30,
        425,
        274,
        267,
        5,
        63,
        11,
        179,
        376,
        80,
        78,
        174,
        402,
        325,
        178,
        441,
        125,
        404,
        79,
        408,
        293,
        0,
        340,
        255,
        66,
        385,
        266,
        190,
        279,
        276,
        71,
        389,
        159,
        260,
        469,
        349,
        237,
        430,
        152,
        43,
        422,
        217,
        303,
        447,
        388,
        163,
        26,
        332,
        119,
        62,
        254,
        47,
        184,
        459,
        281,
        449,
        220,
        368,
        455,
        113,
        249,
        330,
        262,
        339,
        98,
        75,
        417,
        207,
        445,
        209,
        117,
        359,
        158,
        490,
        73,
        328,
        484,
        381,
        112,
        322,
        213,
        369,
        460,
        196,
        162,
        294,
        6,
        448,
        100,
        364,
        176,
        462,
        110,
        85,
        444,
        206,
        111,
        446,
        221,
        410,
        433,
        65,
        69,
        313,
        353,
        22,
        306,
        466,
        292,
        83,
        195,
        216,
        305,
        167,
        297,
        450,
        454,
        259,
        189,
        442,
        166,
        97,
        324,
        224,
        4,
        148,
        473,
        37,
        168,
        177,
        203,
        222,
        367,
        3,
        44,
        16,
        329,
        1,
        194,
        161,
        258,
        494,
        406,
        86,
        395,
        392,
        265,
        32,
        304,
        139,
        127,
        201,
        495,
        416,
        342,
        271,
        486,
        409,
        295,
        350,
        275,
        290,
        94,
        283,
        358,
        316,
        56,
        309,
        414,
        496,
        116,
        491,
        310,
        337,
        434,
        419,
        92,
        363,
        135,
        268,
        312,
        130,
        235,
        407,
        387,
        9,
        145,
        287,
        319,
        197,
        28,
        286,
        23,
        396,
        397,
        242,
        183,
        233,
        470,
        57,
        248,
        343,
        19,
        72,
        251,
        155,
        432,
        428,
        291,
        25,
        415,
        335,
        352,
        160,
        108,
        208,
        485,
        247,
        412,
        14,
        182,
        34,
        405,
        366,
        50,
        477,
        365,
        153,
        418,
        68,
        20,
        475,
        141,
        435,
        453,
        218,
        308,
        468,
        479,
        175,
        10,
        438,
        338,
        12,
        124,
        101,
        464,
        223,
        88,
        355,
        82,
        301,
        186,
        311,
        134,
        478,
        323,
        219,
        67,
        476,
        320,
        215,
        133,
        429,
        126,
        36,
        244,
        169,
        187,
        193,
        277,
        285,
        154,
        280,
        107,
        456,
        326,
        253,
        399,
        115,
        64,
        138,
        374,
        334,
        375,
        91,
        411,
        96,
        346,
        185,
        333,
        471,
        109,
        261,
        391,
        229,
        39,
        180,
        321,
        114,
        269,
        211,
        245,
        59,
        299,
        146,
        377,
        361,
        48,
        128,
        84,
        483,
        288,
        27,
        52,
        227,
        284,
        480,
        225,
        362,
        431,
        74,
        282,
        18,
        371,
        129,
        40,
        164,
        238,
        263,
        493,
        472,
        318,
        103,
        307,
        386,
        42,
        230,
        243,
        60,
        2,
        393,
        205,
        210,
        398,
        90,
        192,
        232,
        437,
        41,
        481,
        31,
        327,
        156,
        132,
        105,
        99,
        273,
        150,
        394,
        379,
        390,
        256,
        427,
        336,
        413,
        452,
        341,
        331,
        436,
        440,
        102,
        443,
        170,
        457,
        13,
        234,
        81,
        144,
        383,
        51,
        212,
        147,
        76,
        302,
        360,
        400,
        489,
        241,
        70,
        423,
        298,
        157,
        165,
        354,
        53,
        270,
        140,
        372,
        181,
        373,
        46,
        465,
        173,
        45,
        252,
        314,
        474,
        378,
        123,
        142,
        498,
        421,
        89,
        344,
        467,
        214,
        15,
        202,
        264,
        451,
        188,
        239,
        121,
        278,
        38,
        137,
        272,
        191,
        380,
        17,
        488,
        458,
        250,
        122,
        151,
        29,
        384,
        93,
        426,
        118,
        317,
        492,
        199,
        315,
        497,
        198,
        226,
        95,
        357,
        58,
        200,
        171,
        296,
        240,
        149,
        55,
        246,
        120,
        77,
        236,
        356,
        35,
        143
    ],
    "Nb of functions evaluations": 400020,
    "Computational time in seconds": 1480.1211431026459,
    "Stopping criterion in evaluations": 400000
}